c "347449.clq"
p edge 120 464
e 1 5
e 1 6
e 1 9
e 1 16
e 1 17
e 1 24
e 1 26
e 1 33
e 1 43
e 1 60
e 1 68
e 1 81
e 1 104
e 1 111
e 2 5
e 3 5
e 3 6
e 3 7
e 3 8
e 3 9
e 3 10
e 3 11
e 3 17
e 3 22
e 3 23
e 3 29
e 3 36
e 3 40
e 3 41
e 3 45
e 3 46
e 3 50
e 3 53
e 3 55
e 3 64
e 3 77
e 3 116
e 3 120
e 4 5
e 4 6
e 4 7
e 4 8
e 4 10
e 4 19
e 4 20
e 4 43
e 4 51
e 4 56
e 4 62
e 4 71
e 4 74
e 4 77
e 4 92
e 4 96
e 4 97
e 4 106
e 4 114
e 4 118
e 5 6
e 5 7
e 5 8
e 5 9
e 5 11
e 5 12
e 5 13
e 5 14
e 5 16
e 5 17
e 5 21
e 5 24
e 5 26
e 5 27
e 5 30
e 5 31
e 5 35
e 5 36
e 5 37
e 5 40
e 5 44
e 5 45
e 5 46
e 5 51
e 5 58
e 5 65
e 5 69
e 5 70
e 5 73
e 5 75
e 5 84
e 5 91
e 5 92
e 5 96
e 5 98
e 5 99
e 5 100
e 5 101
e 5 102
e 5 109
e 6 7
e 6 8
e 6 10
e 6 11
e 6 12
e 6 13
e 6 14
e 6 18
e 6 21
e 6 28
e 6 33
e 6 44
e 6 47
e 6 52
e 6 57
e 6 62
e 6 67
e 6 76
e 6 77
e 6 78
e 6 80
e 6 87
e 6 90
e 6 101
e 6 107
e 6 114
e 7 10
e 7 11
e 7 13
e 7 15
e 7 18
e 7 19
e 7 20
e 7 21
e 7 22
e 7 23
e 7 25
e 7 30
e 7 44
e 7 48
e 7 49
e 7 53
e 7 65
e 7 66
e 7 72
e 7 82
e 7 90
e 7 103
e 7 107
e 7 111
e 7 112
e 7 113
e 7 115
e 8 9
e 8 12
e 8 20
e 8 21
e 8 24
e 8 27
e 8 37
e 8 45
e 8 56
e 8 64
e 8 107
e 8 117
e 8 118
e 9 13
e 9 14
e 9 16
e 9 19
e 9 31
e 9 33
e 9 35
e 9 46
e 9 49
e 9 50
e 9 57
e 9 58
e 9 80
e 9 96
e 9 101
e 9 104
e 9 109
e 9 112
e 9 113
e 10 41
e 10 69
e 10 78
e 10 94
e 10 111
e 10 120
e 11 12
e 11 14
e 11 15
e 11 16
e 11 18
e 11 20
e 11 25
e 11 28
e 11 29
e 11 31
e 11 59
e 11 102
e 11 119
e 12 18
e 12 30
e 12 32
e 12 38
e 12 44
e 12 48
e 12 68
e 12 69
e 12 76
e 12 91
e 12 112
e 13 15
e 13 17
e 13 22
e 13 51
e 13 70
e 13 86
e 13 97
e 14 15
e 14 31
e 14 32
e 14 34
e 14 38
e 14 41
e 14 46
e 14 73
e 14 83
e 14 84
e 14 85
e 14 87
e 14 88
e 14 100
e 15 19
e 15 23
e 15 32
e 15 34
e 15 41
e 15 47
e 15 52
e 15 64
e 15 71
e 15 73
e 15 76
e 15 78
e 15 91
e 15 92
e 15 102
e 16 42
e 16 60
e 16 110
e 17 25
e 17 29
e 17 42
e 17 53
e 17 55
e 17 78
e 17 86
e 17 91
e 18 22
e 18 25
e 18 27
e 18 28
e 18 29
e 18 30
e 18 32
e 18 34
e 18 37
e 18 42
e 18 47
e 18 50
e 18 56
e 18 58
e 18 63
e 18 66
e 18 71
e 18 100
e 18 103
e 18 111
e 19 24
e 19 26
e 19 28
e 19 40
e 19 45
e 19 49
e 19 75
e 19 87
e 20 38
e 20 43
e 20 47
e 20 64
e 20 97
e 20 98
e 20 108
e 22 23
e 22 26
e 22 27
e 22 36
e 22 39
e 22 49
e 22 56
e 22 59
e 22 101
e 23 33
e 23 39
e 23 57
e 23 79
e 23 80
e 23 115
e 24 50
e 24 53
e 24 81
e 24 120
e 25 88
e 25 89
e 25 95
e 26 34
e 26 52
e 26 65
e 26 94
e 27 40
e 27 54
e 27 63
e 27 66
e 27 67
e 27 73
e 27 83
e 27 105
e 27 114
e 27 117
e 27 119
e 28 68
e 29 35
e 29 60
e 29 84
e 30 48
e 31 35
e 31 37
e 31 54
e 31 70
e 31 89
e 31 99
e 32 62
e 32 72
e 32 98
e 32 103
e 33 59
e 33 66
e 34 39
e 34 61
e 34 95
e 35 36
e 35 77
e 35 105
e 36 38
e 36 74
e 36 85
e 36 89
e 36 109
e 37 42
e 37 58
e 37 74
e 37 86
e 37 87
e 38 39
e 38 51
e 38 55
e 38 61
e 38 95
e 39 54
e 40 43
e 40 59
e 40 84
e 41 81
e 41 96
e 42 117
e 43 108
e 43 110
e 44 70
e 44 72
e 44 74
e 44 81
e 44 107
e 46 68
e 46 86
e 46 105
e 47 48
e 47 52
e 47 54
e 47 55
e 47 75
e 47 90
e 47 98
e 51 61
e 51 62
e 52 57
e 52 61
e 52 67
e 52 113
e 53 63
e 54 93
e 55 88
e 55 113
e 56 85
e 56 110
e 57 60
e 57 65
e 57 72
e 58 79
e 58 99
e 60 63
e 60 67
e 60 106
e 60 109
e 60 118
e 61 97
e 62 118
e 64 69
e 64 75
e 65 76
e 65 79
e 65 80
e 65 83
e 65 104
e 65 108
e 65 112
e 66 94
e 67 82
e 67 92
e 68 83
e 68 95
e 68 105
e 68 106
e 68 114
e 68 116
e 69 71
e 69 108
e 70 116
e 71 85
e 71 89
e 71 116
e 72 79
e 72 119
e 73 88
e 73 93
e 74 93
e 76 82
e 76 99
e 79 82
e 79 117
e 80 90
e 80 103
e 80 115
e 84 102
e 86 120
e 87 110
e 87 119
e 89 93
e 89 94
e 89 115
e 96 104
e 96 106
e 98 100
